n_res = 4;
rcap = [15, 24, 18, 34];
rtype = [1, 1, 2, 2];
n_tasks = 10;
modes = [ {1, 2, 3}, {4, 5, 6}, {7, 8, 9}, {10, 11, 12}, {13, 14, 15}, {16, 17, 18}, {19, 20, 21}, {22, 23, 24}, {25, 26, 27}, {28, 29, 30} ];
succ = [ {9}, {4}, {8, 10}, {5, 6, 8}, {7}, {9, 10}, {9, 10}, {}, {}, {} ];
n_opt = 30;
dur = [1, 2, 7, 3, 8, 9, 3, 5, 9, 5, 5, 8, 1, 3, 8, 4, 4, 9, 5, 7, 9, 3, 7, 10, 3, 3, 10, 4, 4, 6];
rreq = [|  6,  5,  0,  4,  0,  1,  0,  0,  5,  0,  0,  2,  0,  2,  0,  3,  0,  3,  0,  0,  0,  5,  3,  0,  0,  5,  4,  4,  4,  3
        |  0,  0,  1,  0,  4,  0,  5,  5,  0,  6,  8,  0,  3,  0,  3,  0, 10,  0,  5,  4,  2,  0,  0,  9,  5,  0,  0,  0,  0,  0
        |  0,  0,  0,  5,  0,  0,  0,  0,  0,  0,  5,  0,  6,  5,  0,  4,  0,  0,  0,  3,  2,  0,  0,  4,  4,  0,  4,  0,  5,  0
        |  7,  7,  7,  0,  5,  5,  7,  5,  2,  8,  0,  6,  0,  0,  9,  0,  7,  5,  3,  0,  0,  1,  1,  0,  0,  7,  0,  5,  0,  5 |];
